142
0 49 93 40 21 92 34 66 19 98 
24 3 119 94 130 131 41 62 135 121 
5 69 46 137 78 43 96 38 122 124 
60 111 80 2 100 75 128 11 22 53 
51 23 132 86 72 127 6 106 83 64 
105 68 123 90 28 104 139 56 30 57 
133 55 47 8 63 71 89 107 25 52 
14 48 120 112 33 101 32 65 37 26 
125 36 50 103 114 102 17 87 73 136 
76 115 99 70 45 20 42 27 117 39 
79 61 126 110 4 31 113 134 82 84 
59 29 109 7 1 10 129 81 13 97 
138 18 9 74 88 141 77 54 116 108 
44 85 67 91 118 12 15 16 35 58 
95 140 
